c Cardinality constraint <=k(x_1,...,x_n) for k = 1 and n = 3.
c Adders are encoded using implications.
c The numbers of clauses and variables on the next line are just upper bounds!
p cnf 7 11
1 2 -3 4 0
1 -2 3 4 0
-1 2 3 4 0
-1 -2 -3 4 0
-1 -2 5 0
-1 -3 5 0
-2 -3 5 0
-5 0
